Minimize
  - 13 y_0 - 9 y_1 - 9 y_2 - 7 y_3 - 16 y_4 - 11 y_5 - 17 y_6 - 4 y_7
   - 23 y_8 - 5 y_9 - 4 y_10 - 22 y_11 - 6 y_12 - 15 y_13 - 5 y_14
   - 11 y_15 - 7 y_16 - 14 y_17 - 14 y_18 - 16 y_19 - 16 y_20 - 11 y_21
   - 19 y_22 - 22 y_23 - 23 y_24 - 16 y_25 - 17 y_26 - 3 y_27 - 17 y_28
   - 17 y_29 - 8 y_30 - 22 y_31 - 12 y_32 - 9 y_33 - 10 y_34 - 8 y_35
   - 13 y_36 - 21 y_37 - 6 y_38 - 7 y_39 - 13 y_40 - 14 y_41 - 18 y_42
   - 12 y_43 - 16 y_44 - 16 y_45 - 11 y_46 - 9 y_48 - 6 y_49 + 620 Constant
Subject To
 c_0: y_7 = 1
 c_1_0: y_0 >= 1
 c_1_1: y_1 >= 1
 c_1_2: y_2 + y_39 >= 1
 c_1_3: y_3 + y_16 + y_38 >= 1
 c_1_4: y_4 + y_26 >= 1
 c_1_5: y_5 + y_43 >= 1
 c_1_6: y_6 + y_28 >= 1
 c_1_7: y_7 + y_9 + y_10 + y_27 >= 1
 c_1_8: y_8 + y_11 + y_23 + y_24 >= 1
 c_1_9: y_7 + y_9 + y_27 + y_49 >= 1
 c_1_10: y_7 + y_10 + y_14 + y_27 >= 1
 c_1_11: y_8 + y_11 + y_23 + y_24 >= 1
 c_1_12: y_12 + y_14 >= 1
 c_1_13: y_13 + y_17 + y_18 + y_19 + y_44 >= 1
 c_1_14: y_10 + y_12 + y_14 + y_38 >= 1
 c_1_15: y_15 + y_36 >= 1
 c_1_16: y_3 + y_16 + y_38 >= 1
 c_1_17: y_13 + y_17 + y_40 >= 1
 c_1_18: y_13 + y_18 >= 1
 c_1_19: y_13 + y_19 >= 1
 c_1_20: y_20 >= 1
 c_1_21: y_21 + y_46 >= 1
 c_1_22: y_22 >= 1
 c_1_23: y_8 + y_11 + y_23 >= 1
 c_1_24: y_8 + y_11 + y_24 >= 1
 c_1_25: y_25 + y_45 >= 1
 c_1_26: y_4 + y_26 + y_42 >= 1
 c_1_27: y_7 + y_9 + y_10 + y_27 >= 1
 c_1_28: y_6 + y_28 + y_29 >= 1
 c_1_29: y_28 + y_29 >= 1
 c_1_30: y_30 >= 1
 c_1_31: y_31 >= 1
 c_1_32: y_32 >= 1
 c_1_33: y_33 + y_34 >= 1
 c_1_34: y_33 + y_34 >= 1
 c_1_35: y_35 + y_48 >= 1
 c_1_36: y_15 + y_36 >= 1
 c_1_37: y_37 >= 1
 c_1_38: y_3 + y_14 + y_16 + y_38 >= 1
 c_1_39: y_2 + y_39 >= 1
 c_1_40: y_17 + y_40 + y_41 + y_43 >= 1
 c_1_41: y_40 + y_41 + y_43 >= 1
 c_1_42: y_26 + y_42 >= 1
 c_1_43: y_5 + y_40 + y_41 + y_43 >= 1
 c_1_44: y_13 + y_44 >= 1
 c_1_45: y_25 + y_45 >= 1
 c_1_46: y_21 + y_46 >= 1
 c_1_47: y_47 >= 1
 c_1_48: y_35 + y_48 >= 1
 c_1_49: y_9 + y_49 >= 1
Bounds
 Constant = 1
Binaries
 y_0 y_1 y_2 y_3 y_4 y_5 y_6 y_7 y_8 y_9 y_10 y_11 y_12 y_13 y_14 y_15 y_16
 y_17 y_18 y_19 y_20 y_21 y_22 y_23 y_24 y_25 y_26 y_27 y_28 y_29 y_30 y_31
 y_32 y_33 y_34 y_35 y_36 y_37 y_38 y_39 y_40 y_41 y_42 y_43 y_44 y_45 y_46
 y_47 y_48 y_49
End
